10 45
1 2 5
1 3 5
1 4 13
1 5 13
1 6 20
1 7 12
1 8 23
1 9 2
1 10 21
2 3 27
2 4 17
2 5 14
2 6 3
2 7 9
2 8 7
2 9 23
2 10 1
3 4 17
3 5 13
3 6 29
3 7 3
3 8 18
3 9 18
3 10 20
4 5 20
4 6 6
4 7 12
4 8 16
4 9 6
4 10 27
5 6 14
5 7 13
5 8 0
5 9 11
5 10 15
6 7 23
6 8 4
6 9 13
6 10 18
7 8 1
7 9 23
7 10 28
8 9 17
8 10 26
9 10 27
